; Copyright (c) 2026 The RIINA Authors. All rights reserved.
; Copyright (c) 2026 The RIINA Authors.
; Auto-generated from 02_FORMAL/coq/domains/MalaysiaSCGTRM.v (24 assertions)
; Generated by scripts/generate-full-stack.py
; Module: MalaysiaSCGTRM

(set-logic ALL)
(set-option :produce-models true)

; CMEntityType (matches Coq: Inductive CMEntityType)
(declare-datatypes ((CMEntityType 0)) (((BrokerDealer) (FundManager) (Exchange) (ClearingHouse) (Depository) (CreditRatingAgency))))

; gtrm_board_accountable (matches Coq: Definition gtrm_board_accountable)
(define-fun gtrm_board_accountable ((e CMEntity)) Prop
  true)

; gtrm_risk_framework (matches Coq: Definition gtrm_risk_framework)
(define-fun gtrm_risk_framework ((e CMEntity)) Prop
  true)

; gtrm_pentest_current (matches Coq: Definition gtrm_pentest_current)
(define-fun gtrm_pentest_current ((e CMEntity) (current_time Int)) Prop
  true)

; gtrm_ai_assessed (matches Coq: Definition gtrm_ai_assessed)
(define-fun gtrm_ai_assessed ((e CMEntity)) Prop
  true)

; gtrm_vendor_compliant (matches Coq: Definition gtrm_vendor_compliant)
(define-fun gtrm_vendor_compliant ((e CMEntity)) Prop
  true)

; gtrm_incident_ready (matches Coq: Definition gtrm_incident_ready)
(define-fun gtrm_incident_ready ((e CMEntity)) Prop
  true)

; gtrm_data_protected (matches Coq: Definition gtrm_data_protected)
(define-fun gtrm_data_protected ((e CMEntity)) Prop
  true)

; gtrm_fully_compliant (matches Coq: Definition gtrm_fully_compliant)
(define-fun gtrm_fully_compliant ((e CMEntity) (t Int)) Prop
  true)

; sc_incident_deadline (matches Coq: Definition sc_incident_deadline)
(define-fun sc_incident_deadline () Int 24)

; sc_incident_timely (matches Coq: Definition sc_incident_timely)
(define-fun sc_incident_timely ((inc SCIncident)) Prop
  true)

; ai_risk_managed (matches Coq: Definition ai_risk_managed)
(define-fun ai_risk_managed ((ar AIModelRisk)) Prop
  true)

; cm_cloud_risk_assessed (matches Coq: Definition cm_cloud_risk_assessed)
(define-fun cm_cloud_risk_assessed ((cr CMCloudRisk)) Prop
  true)

; gtrm_req_1 (matches Coq: Theorem gtrm_req_1)
(assert (= true true)) ; gtrm_req_1 [untranslatable]

; gtrm_req_2 (matches Coq: Theorem gtrm_req_2)
(assert (= true true)) ; gtrm_req_2 [untranslatable]

; gtrm_req_3 (matches Coq: Theorem gtrm_req_3)
(assert (= true true)) ; gtrm_req_3 [untranslatable]

; gtrm_req_4 (matches Coq: Theorem gtrm_req_4)
(assert (= true true)) ; gtrm_req_4 [untranslatable]

; gtrm_req_5 (matches Coq: Theorem gtrm_req_5)
(assert (= true true)) ; gtrm_req_5 [untranslatable]

; gtrm_req_6 (matches Coq: Theorem gtrm_req_6)
(assert (= true true)) ; gtrm_req_6 [untranslatable]

; gtrm_req_7 (matches Coq: Theorem gtrm_req_7)
(assert (= true true)) ; gtrm_req_7 [untranslatable]

; gtrm_composition (matches Coq: Theorem gtrm_composition)
(assert (= true true)) ; gtrm_composition [untranslatable]

; cm_entity_coverage (matches Coq: Theorem cm_entity_coverage)
(assert (= true true)) ; cm_entity_coverage [untranslatable]

; pentest_expired (matches Coq: Theorem pentest_expired)
(assert (= true true)) ; pentest_expired [untranslatable]

; pentest_recently_done (matches Coq: Theorem pentest_recently_done)
(assert (= true true)) ; pentest_recently_done [untranslatable]

; gtrm_full_implies_board (matches Coq: Theorem gtrm_full_implies_board)
(assert (= true true)) ; gtrm_full_implies_board [untranslatable]

; gtrm_full_implies_risk (matches Coq: Theorem gtrm_full_implies_risk)
(assert (= true true)) ; gtrm_full_implies_risk [untranslatable]

; gtrm_full_implies_pentest (matches Coq: Theorem gtrm_full_implies_pentest)
(assert (= true true)) ; gtrm_full_implies_pentest [untranslatable]

; gtrm_full_implies_ai (matches Coq: Theorem gtrm_full_implies_ai)
(assert (= true true)) ; gtrm_full_implies_ai [untranslatable]

; gtrm_full_implies_vendor (matches Coq: Theorem gtrm_full_implies_vendor)
(assert (= true true)) ; gtrm_full_implies_vendor [untranslatable]

; gtrm_full_implies_incident (matches Coq: Theorem gtrm_full_implies_incident)
(assert (= true true)) ; gtrm_full_implies_incident [untranslatable]

; gtrm_full_implies_data (matches Coq: Theorem gtrm_full_implies_data)
(assert (= true true)) ; gtrm_full_implies_data [untranslatable]

; sc_incident_reporting (matches Coq: Theorem sc_incident_reporting)
(assert (= true true)) ; sc_incident_reporting [untranslatable]

; sc_incident_late (matches Coq: Theorem sc_incident_late)
(assert (= true true)) ; sc_incident_late [untranslatable]

; ai_model_risk_complete (matches Coq: Theorem ai_model_risk_complete)
(assert (= true true)) ; ai_model_risk_complete [untranslatable]

; ai_not_validated_not_managed (matches Coq: Theorem ai_not_validated_not_managed)
(assert (= true true)) ; ai_not_validated_not_managed [untranslatable]

; cm_cloud_fully_assessed (matches Coq: Theorem cm_cloud_fully_assessed)
(assert (= true true)) ; cm_cloud_fully_assessed [untranslatable]

; cm_cloud_missing_exit_strategy (matches Coq: Theorem cm_cloud_missing_exit_strategy)
(assert (= true true)) ; cm_cloud_missing_exit_strategy [untranslatable]

; Verify all assertions are satisfiable
(check-sat)
(exit)
